ilp_joint/output/melting_ilp.lp
Maximize
  0.00117184696170779 Z_613_6_0 + 0.00516354635759573 Z_613_6_1
   + 0.2345563060883313 Z_613_6_2 + 0.0040865597996187 Z_613_6_3
   + 0.6550217407927466 Z_613_6_4 + 8.77508e-05 Z_613_4_0
   + 0.00552401200629123 Z_613_4_1 + 0.1345905468767156 Z_613_4_2
   + 0.000198612 Z_613_4_3 + 0.7595990782387487 Z_613_4_4
   + 0.0105130665162318 Z_613_8_0 + 0.3309152476084775 Z_613_8_1
   + 0.1136299631814302 Z_613_8_2 + 0.00982142731872496 Z_613_8_3
   + 0.4351202953751356 Z_613_8_4 + 0.1075877286026562 Z_613_9_0
   + 0.4937811247169588 Z_613_9_1 + 0.0463851302448516 Z_613_9_2
   + 0.00087357 Z_613_9_3 + 0.251372446401816 Z_613_9_4
   + 0.0105130665162318 Z_613_7_0 + 0.3309152476084775 Z_613_7_1
   + 0.1136299631814302 Z_613_7_2 + 0.00982142731872496 Z_613_7_3
   + 0.4351202953751356 Z_613_7_4 + 0.00163241118604292 Z_613_1_0
   + 0.00525150641844619 Z_613_1_1 + 0.1027737185201891 Z_613_1_2
   + 0.00473396950054785 Z_613_1_3 + 0.7856083943747739 Z_613_1_4
   + 0.0212161225780703 Z_613_5_0 + 0.6813955167484351 Z_613_5_1
   + 0.00968534441590618 Z_613_5_2 + 0.0553974811174594 Z_613_5_3
   + 0.132305535140129 Z_613_5_4 + 0.00163241118604292 Z_613_2_0
   + 0.00525150641844619 Z_613_2_1 + 0.1027737185201891 Z_613_2_2
   + 0.00473396950054785 Z_613_2_3 + 0.7856083943747739 Z_613_2_4
   + 0.0404171871585835 Z_613_3_0 + 0.4496880388007368 Z_613_3_1
   + 0.011499800561571 Z_613_3_2 + 0.00509651905286575 Z_613_3_3
   + 0.3932984544262428 Z_613_3_4 + 0.7372700348316257 Z_588_0_0
   + 0.0833501629604141 Z_588_0_1 + 0.0337073199654098 Z_588_0_2
   + 0.0408140930582931 Z_588_0_3 + 0.00485838918425735 Z_588_0_4
   + 5.9555333208926556e-04 Z_588_1_0 + 0.00225746434217712 Z_588_1_1
   + 0.8329236189394813 Z_588_1_2 + 4.5703130971404504e-04 Z_588_1_3
   + 0.0637663320765383 Z_588_1_4 + 0.0283570948215782 Z_314_0_0
   + 0.5823783569683174 Z_314_0_1 + 0.0425023278161604 Z_314_0_2
   + 0.00235023946470105 Z_314_0_3 + 0.244411980929243 Z_314_0_4 + [
   0.0600535801752333 Z_613_9_0 * Z_588_0_0
   + 0.0600535801752333 Z_613_9_1 * Z_588_0_1
   + 0.0600535801752333 Z_613_9_2 * Z_588_0_2
   + 0.0600535801752333 Z_613_9_3 * Z_588_0_3
   + 0.0600535801752333 Z_613_9_4 * Z_588_0_4
   + 0.0246770948649213 Z_613_7_0 * Z_588_0_0
   + 0.0246770948649213 Z_613_7_1 * Z_588_0_1
   + 0.0246770948649213 Z_613_7_2 * Z_588_0_2
   + 0.0246770948649213 Z_613_7_3 * Z_588_0_3
   + 0.0246770948649213 Z_613_7_4 * Z_588_0_4
   + 0.1122463200588344 Z_613_2_0 * Z_588_0_0
   + 0.1122463200588344 Z_613_2_1 * Z_588_0_1
   + 0.1122463200588344 Z_613_2_2 * Z_588_0_2
   + 0.1122463200588344 Z_613_2_3 * Z_588_0_3
   + 0.1122463200588344 Z_613_2_4 * Z_588_0_4
   + 0.1681196160586163 Z_613_3_0 * Z_588_0_0
   + 0.1681196160586163 Z_613_3_1 * Z_588_0_1
   + 0.1681196160586163 Z_613_3_2 * Z_588_0_2
   + 0.1681196160586163 Z_613_3_3 * Z_588_0_3
   + 0.1681196160586163 Z_613_3_4 * Z_588_0_4 ] / 2 
Subject To
 constraint1_6136: Z_613_6_0 + Z_613_6_1 + Z_613_6_2 + Z_613_6_3
   + Z_613_6_4 <= 1
 constraint1_6134: Z_613_4_0 + Z_613_4_1 + Z_613_4_2 + Z_613_4_3
   + Z_613_4_4 <= 1
 constraint1_6138: Z_613_8_0 + Z_613_8_1 + Z_613_8_2 + Z_613_8_3
   + Z_613_8_4 <= 1
 constraint1_6139: Z_613_9_0 + Z_613_9_1 + Z_613_9_2 + Z_613_9_3
   + Z_613_9_4 <= 1
 constraint1_6137: Z_613_7_0 + Z_613_7_1 + Z_613_7_2 + Z_613_7_3
   + Z_613_7_4 <= 1
 constraint1_6131: Z_613_1_0 + Z_613_1_1 + Z_613_1_2 + Z_613_1_3
   + Z_613_1_4 <= 1
 constraint1_6135: Z_613_5_0 + Z_613_5_1 + Z_613_5_2 + Z_613_5_3
   + Z_613_5_4 <= 1
 constraint1_6132: Z_613_2_0 + Z_613_2_1 + Z_613_2_2 + Z_613_2_3
   + Z_613_2_4 <= 1
 constraint1_6133: Z_613_3_0 + Z_613_3_1 + Z_613_3_2 + Z_613_3_3
   + Z_613_3_4 <= 1
 constraint1_5880: Z_588_0_0 + Z_588_0_1 + Z_588_0_2 + Z_588_0_3
   + Z_588_0_4 <= 1
 constraint1_5881: Z_588_1_0 + Z_588_1_1 + Z_588_1_2 + Z_588_1_3
   + Z_588_1_4 <= 1
 constraint1_3140: Z_314_0_0 + Z_314_0_1 + Z_314_0_2 + Z_314_0_3
   + Z_314_0_4 <= 1
 constraint2_6130: Z_613_6_0 + Z_613_4_0 + Z_613_8_0 + Z_613_9_0
   + Z_613_7_0 + Z_613_1_0 + Z_613_5_0 + Z_613_2_0 + Z_613_3_0 <= 1
 constraint2_6131: Z_613_6_1 + Z_613_4_1 + Z_613_8_1 + Z_613_9_1
   + Z_613_7_1 + Z_613_1_1 + Z_613_5_1 + Z_613_2_1 + Z_613_3_1 <= 1
 constraint2_6132: Z_613_6_2 + Z_613_4_2 + Z_613_8_2 + Z_613_9_2
   + Z_613_7_2 + Z_613_1_2 + Z_613_5_2 + Z_613_2_2 + Z_613_3_2 <= 1
 constraint2_6133: Z_613_6_3 + Z_613_4_3 + Z_613_8_3 + Z_613_9_3
   + Z_613_7_3 + Z_613_1_3 + Z_613_5_3 + Z_613_2_3 + Z_613_3_3 <= 1
 constraint2_5880: Z_588_0_0 + Z_588_1_0 <= 1
 constraint2_5881: Z_588_0_1 + Z_588_1_1 <= 1
 constraint2_5882: Z_588_0_2 + Z_588_1_2 <= 1
 constraint2_5883: Z_588_0_3 + Z_588_1_3 <= 1
 constraint2_3140: Z_314_0_0 <= 1
 constraint2_3141: Z_314_0_1 <= 1
 constraint2_3142: Z_314_0_2 <= 1
 constraint2_3143: Z_314_0_3 <= 1
Bounds
Binaries
 Z_613_6_0 Z_613_6_1 Z_613_6_2 Z_613_6_3 Z_613_6_4 Z_613_4_0 Z_613_4_1
 Z_613_4_2 Z_613_4_3 Z_613_4_4 Z_613_8_0 Z_613_8_1 Z_613_8_2 Z_613_8_3
 Z_613_8_4 Z_613_9_0 Z_613_9_1 Z_613_9_2 Z_613_9_3 Z_613_9_4 Z_613_7_0
 Z_613_7_1 Z_613_7_2 Z_613_7_3 Z_613_7_4 Z_613_1_0 Z_613_1_1 Z_613_1_2
 Z_613_1_3 Z_613_1_4 Z_613_5_0 Z_613_5_1 Z_613_5_2 Z_613_5_3 Z_613_5_4
 Z_613_2_0 Z_613_2_1 Z_613_2_2 Z_613_2_3 Z_613_2_4 Z_613_3_0 Z_613_3_1
 Z_613_3_2 Z_613_3_3 Z_613_3_4 Z_588_0_0 Z_588_0_1 Z_588_0_2 Z_588_0_3
 Z_588_0_4 Z_588_1_0 Z_588_1_1 Z_588_1_2 Z_588_1_3 Z_588_1_4 Z_314_0_0
 Z_314_0_1 Z_314_0_2 Z_314_0_3 Z_314_0_4
End
