ilp_joint/output/melting_ilp.mps
NAME melting_srl_ilp
* Max problem is converted into Min one
ROWS
 N  OBJ
 L  constraint1_6131
 L  constraint1_6130
 L  constraint1_6133
 L  constraint1_6132
 L  constraint1_6135
 L  constraint1_6139
 L  constraint1_6134
 L  constraint1_6136
 L  constraint1_6138
 L  constraint1_6137
 L  constraint1_6550
 L  constraint1_3420
 L  constraint1_780
 L  constraint1_5860
 L  constraint1_2810
 L  constraint1_6090
 L  constraint2_6130
 L  constraint2_6131
 L  constraint2_6132
 L  constraint2_6133
 L  constraint2_6550
 L  constraint2_6551
 L  constraint2_6552
 L  constraint2_6553
 L  constraint2_3420
 L  constraint2_3421
 L  constraint2_3422
 L  constraint2_3423
 L  constraint2_780
 L  constraint2_781
 L  constraint2_782
 L  constraint2_783
 L  constraint2_5860
 L  constraint2_5861
 L  constraint2_5862
 L  constraint2_5863
 L  constraint2_2810
 L  constraint2_2811
 L  constraint2_2812
 L  constraint2_2813
 L  constraint2_6090
 L  constraint2_6091
 L  constraint2_6092
 L  constraint2_6093
COLUMNS
    MARKER    'MARKER'                 'INTORG'
    Z_613_1_0  OBJ       -9.6008903490587220e-03
    Z_613_1_0  constraint1_6131  1
    Z_613_1_0  constraint2_6130  1
    Z_613_1_1  OBJ       -1.5493394279702167e-02
    Z_613_1_1  constraint1_6131  1
    Z_613_1_1  constraint2_6131  1
    Z_613_1_2  OBJ       -3.2419836560089726e-01
    Z_613_1_2  constraint1_6131  1
    Z_613_1_2  constraint2_6132  1
    Z_613_1_3  OBJ       -1.9328225354897789e-02
    Z_613_1_3  constraint1_6131  1
    Z_613_1_3  constraint2_6133  1
    Z_613_0_0  OBJ       -9.9183219208048706e-02
    Z_613_0_0  constraint1_6130  1
    Z_613_0_0  constraint2_6130  1
    Z_613_0_1  OBJ       -3.3168935129611832e-01
    Z_613_0_1  constraint1_6130  1
    Z_613_0_1  constraint2_6131  1
    Z_613_0_2  OBJ       -1.3191614517250272e-01
    Z_613_0_2  constraint1_6130  1
    Z_613_0_2  constraint2_6132  1
    Z_613_0_3  OBJ       -8.9069178068798636e-03
    Z_613_0_3  constraint1_6130  1
    Z_613_0_3  constraint2_6133  1
    Z_613_3_0  OBJ       -8.8320607590355399e-02
    Z_613_3_0  constraint1_6133  1
    Z_613_3_0  constraint2_6130  1
    Z_613_3_1  OBJ       -3.7229017045167567e-01
    Z_613_3_1  constraint1_6133  1
    Z_613_3_1  constraint2_6131  1
    Z_613_3_2  OBJ       -1.2533994189929454e-02
    Z_613_3_2  constraint1_6133  1
    Z_613_3_2  constraint2_6132  1
    Z_613_3_3  OBJ       -5.0332303483353796e-02
    Z_613_3_3  constraint1_6133  1
    Z_613_3_3  constraint2_6133  1
    Z_613_2_0  OBJ       -9.6008903490587220e-03
    Z_613_2_0  constraint1_6132  1
    Z_613_2_0  constraint2_6130  1
    Z_613_2_1  OBJ       -1.5493394279702167e-02
    Z_613_2_1  constraint1_6132  1
    Z_613_2_1  constraint2_6131  1
    Z_613_2_2  OBJ       -3.2419836560089726e-01
    Z_613_2_2  constraint1_6132  1
    Z_613_2_2  constraint2_6132  1
    Z_613_2_3  OBJ       -1.9328225354897789e-02
    Z_613_2_3  constraint1_6132  1
    Z_613_2_3  constraint2_6133  1
    Z_613_5_0  OBJ       -4.9584012906265552e-02
    Z_613_5_0  constraint1_6135  1
    Z_613_5_0  constraint2_6130  1
    Z_613_5_1  OBJ       -3.9164792663536868e-01
    Z_613_5_1  constraint1_6135  1
    Z_613_5_1  constraint2_6131  1
    Z_613_5_2  OBJ       -2.1372410711287006e-02
    Z_613_5_2  constraint1_6135  1
    Z_613_5_2  constraint2_6132  1
    Z_613_5_3  OBJ       -1.9836035864342721e-01
    Z_613_5_3  constraint1_6135  1
    Z_613_5_3  constraint2_6133  1
    Z_613_9_0  OBJ       -2.4511141963727390e-01
    Z_613_9_0  constraint1_6139  1
    Z_613_9_0  constraint2_6130  1
    Z_613_9_1  OBJ       -4.1665042542298281e-01
    Z_613_9_1  constraint1_6139  1
    Z_613_9_1  constraint2_6131  1
    Z_613_9_2  OBJ       -3.8687136730229291e-02
    Z_613_9_2  constraint1_6139  1
    Z_613_9_2  constraint2_6132  1
    Z_613_9_3  OBJ       -2.2408333440867970e-03
    Z_613_9_3  constraint1_6139  1
    Z_613_9_3  constraint2_6133  1
    Z_613_4_0  OBJ       -9.3306546728101354e-04
    Z_613_4_0  constraint1_6134  1
    Z_613_4_0  constraint2_6130  1
    Z_613_4_1  OBJ       -4.4392482237362196e-02
    Z_613_4_1  constraint1_6134  1
    Z_613_4_1  constraint2_6131  1
    Z_613_4_2  OBJ       -1.2914282448259051e-01
    Z_613_4_2  constraint1_6134  1
    Z_613_4_2  constraint2_6132  1
    Z_613_4_3  OBJ       -5.0006909179158131e-03
    Z_613_4_3  constraint1_6134  1
    Z_613_4_3  constraint2_6133  1
    Z_613_6_0  OBJ       -6.5892755418384468e-03
    Z_613_6_0  constraint1_6136  1
    Z_613_6_0  constraint2_6130  1
    Z_613_6_1  OBJ       -4.1096219938110370e-02
    Z_613_6_1  constraint1_6136  1
    Z_613_6_1  constraint2_6131  1
    Z_613_6_2  OBJ       -5.0932548173719072e-01
    Z_613_6_2  constraint1_6136  1
    Z_613_6_2  constraint2_6132  1
    Z_613_6_3  OBJ       -2.3022184675611533e-02
    Z_613_6_3  constraint1_6136  1
    Z_613_6_3  constraint2_6133  1
    Z_613_8_0  OBJ       -2.1955965661021194e-02
    Z_613_8_0  constraint1_6138  1
    Z_613_8_0  constraint2_6130  1
    Z_613_8_1  OBJ       -2.1995865778039739e-01
    Z_613_8_1  constraint1_6138  1
    Z_613_8_1  constraint2_6131  1
    Z_613_8_2  OBJ       -2.5361095854934051e-01
    Z_613_8_2  constraint1_6138  1
    Z_613_8_2  constraint2_6132  1
    Z_613_8_3  OBJ       -2.8513722788972930e-02
    Z_613_8_3  constraint1_6138  1
    Z_613_8_3  constraint2_6133  1
    Z_613_7_0  OBJ       -2.1955965661021194e-02
    Z_613_7_0  constraint1_6137  1
    Z_613_7_0  constraint2_6130  1
    Z_613_7_1  OBJ       -2.1995865778039739e-01
    Z_613_7_1  constraint1_6137  1
    Z_613_7_1  constraint2_6131  1
    Z_613_7_2  OBJ       -2.5361095854934051e-01
    Z_613_7_2  constraint1_6137  1
    Z_613_7_2  constraint2_6132  1
    Z_613_7_3  OBJ       -2.8513722788972930e-02
    Z_613_7_3  constraint1_6137  1
    Z_613_7_3  constraint2_6133  1
    Z_655_0_0  OBJ       -2.6548234074782320e-02
    Z_655_0_0  constraint1_6550  1
    Z_655_0_0  constraint2_6550  1
    Z_655_0_1  OBJ       -4.7540749826281758e-02
    Z_655_0_1  constraint1_6550  1
    Z_655_0_1  constraint2_6551  1
    Z_655_0_2  OBJ       -1.1506740072052850e-01
    Z_655_0_2  constraint1_6550  1
    Z_655_0_2  constraint2_6552  1
    Z_655_0_3  OBJ       -2.0200746247792736e-02
    Z_655_0_3  constraint1_6550  1
    Z_655_0_3  constraint2_6553  1
    Z_342_0_0  OBJ       -1.9111154466157966e-03
    Z_342_0_0  constraint1_3420  1
    Z_342_0_0  constraint2_3420  1
    Z_342_0_1  OBJ       -1.3543627585080898e-02
    Z_342_0_1  constraint1_3420  1
    Z_342_0_1  constraint2_3421  1
    Z_342_0_2  OBJ       -8.4835672791864092e-01
    Z_342_0_2  constraint1_3420  1
    Z_342_0_2  constraint2_3422  1
    Z_342_0_3  OBJ       -2.0169414019304846e-02
    Z_342_0_3  constraint1_3420  1
    Z_342_0_3  constraint2_3423  1
    Z_78_0_0  OBJ       -9.3479680352401714e-02
    Z_78_0_0  constraint1_780  1
    Z_78_0_0  constraint2_780  1
    Z_78_0_1  OBJ       -4.5218373232230692e-02
    Z_78_0_1  constraint1_780  1
    Z_78_0_1  constraint2_781  1
    Z_78_0_2  OBJ       -4.9078516495839879e-02
    Z_78_0_2  constraint1_780  1
    Z_78_0_2  constraint2_782  1
    Z_78_0_3  OBJ       -3.9868786065799931e-02
    Z_78_0_3  constraint1_780  1
    Z_78_0_3  constraint2_783  1
    Z_586_0_0  OBJ       -4.4271411612924794e-01
    Z_586_0_0  constraint1_5860  1
    Z_586_0_0  constraint2_5860  1
    Z_586_0_1  OBJ       -3.8667169237900251e-01
    Z_586_0_1  constraint1_5860  1
    Z_586_0_1  constraint2_5861  1
    Z_586_0_2  OBJ       -3.2047599558277739e-03
    Z_586_0_2  constraint1_5860  1
    Z_586_0_2  constraint2_5862  1
    Z_586_0_3  OBJ       -1.9385420333461592e-01
    Z_586_0_3  constraint1_5860  1
    Z_586_0_3  constraint2_5863  1
    Z_281_0_0  OBJ       -1.1009947353433481e-02
    Z_281_0_0  constraint1_2810  1
    Z_281_0_0  constraint2_2810  1
    Z_281_0_1  OBJ       -5.6914611895034461e-01
    Z_281_0_1  constraint1_2810  1
    Z_281_0_1  constraint2_2811  1
    Z_281_0_2  OBJ       -5.9089597751246413e-02
    Z_281_0_2  constraint1_2810  1
    Z_281_0_2  constraint2_2812  1
    Z_281_0_3  OBJ       -3.4221231456065912e-02
    Z_281_0_3  constraint1_2810  1
    Z_281_0_3  constraint2_2813  1
    Z_609_0_0  OBJ       -7.7773250724485490e-04
    Z_609_0_0  constraint1_6090  1
    Z_609_0_0  constraint2_6090  1
    Z_609_0_1  OBJ       -1.0351441552792096e-02
    Z_609_0_1  constraint1_6090  1
    Z_609_0_1  constraint2_6091  1
    Z_609_0_2  OBJ       -6.4802272846692788e-01
    Z_609_0_2  constraint1_6090  1
    Z_609_0_2  constraint2_6092  1
    Z_609_0_3  OBJ       -1.2629851591126080e-02
    Z_609_0_3  constraint1_6090  1
    Z_609_0_3  constraint2_6093  1
    MARKER    'MARKER'                 'INTEND'
RHS
    RHS1      constraint1_6131  1
    RHS1      constraint1_6130  1
    RHS1      constraint1_6133  1
    RHS1      constraint1_6132  1
    RHS1      constraint1_6135  1
    RHS1      constraint1_6139  1
    RHS1      constraint1_6134  1
    RHS1      constraint1_6136  1
    RHS1      constraint1_6138  1
    RHS1      constraint1_6137  1
    RHS1      constraint1_6550  1
    RHS1      constraint1_3420  1
    RHS1      constraint1_780  1
    RHS1      constraint1_5860  1
    RHS1      constraint1_2810  1
    RHS1      constraint1_6090  1
    RHS1      constraint2_6130  1
    RHS1      constraint2_6131  1
    RHS1      constraint2_6132  1
    RHS1      constraint2_6133  1
    RHS1      constraint2_6550  1
    RHS1      constraint2_6551  1
    RHS1      constraint2_6552  1
    RHS1      constraint2_6553  1
    RHS1      constraint2_3420  1
    RHS1      constraint2_3421  1
    RHS1      constraint2_3422  1
    RHS1      constraint2_3423  1
    RHS1      constraint2_780  1
    RHS1      constraint2_781  1
    RHS1      constraint2_782  1
    RHS1      constraint2_783  1
    RHS1      constraint2_5860  1
    RHS1      constraint2_5861  1
    RHS1      constraint2_5862  1
    RHS1      constraint2_5863  1
    RHS1      constraint2_2810  1
    RHS1      constraint2_2811  1
    RHS1      constraint2_2812  1
    RHS1      constraint2_2813  1
    RHS1      constraint2_6090  1
    RHS1      constraint2_6091  1
    RHS1      constraint2_6092  1
    RHS1      constraint2_6093  1
BOUNDS
 UP BND1      Z_613_1_0  1
 UP BND1      Z_613_1_1  1
 UP BND1      Z_613_1_2  1
 UP BND1      Z_613_1_3  1
 UP BND1      Z_613_0_0  1
 UP BND1      Z_613_0_1  1
 UP BND1      Z_613_0_2  1
 UP BND1      Z_613_0_3  1
 UP BND1      Z_613_3_0  1
 UP BND1      Z_613_3_1  1
 UP BND1      Z_613_3_2  1
 UP BND1      Z_613_3_3  1
 UP BND1      Z_613_2_0  1
 UP BND1      Z_613_2_1  1
 UP BND1      Z_613_2_2  1
 UP BND1      Z_613_2_3  1
 UP BND1      Z_613_5_0  1
 UP BND1      Z_613_5_1  1
 UP BND1      Z_613_5_2  1
 UP BND1      Z_613_5_3  1
 UP BND1      Z_613_9_0  1
 UP BND1      Z_613_9_1  1
 UP BND1      Z_613_9_2  1
 UP BND1      Z_613_9_3  1
 UP BND1      Z_613_4_0  1
 UP BND1      Z_613_4_1  1
 UP BND1      Z_613_4_2  1
 UP BND1      Z_613_4_3  1
 UP BND1      Z_613_6_0  1
 UP BND1      Z_613_6_1  1
 UP BND1      Z_613_6_2  1
 UP BND1      Z_613_6_3  1
 UP BND1      Z_613_8_0  1
 UP BND1      Z_613_8_1  1
 UP BND1      Z_613_8_2  1
 UP BND1      Z_613_8_3  1
 UP BND1      Z_613_7_0  1
 UP BND1      Z_613_7_1  1
 UP BND1      Z_613_7_2  1
 UP BND1      Z_613_7_3  1
 UP BND1      Z_655_0_0  1
 UP BND1      Z_655_0_1  1
 UP BND1      Z_655_0_2  1
 UP BND1      Z_655_0_3  1
 UP BND1      Z_342_0_0  1
 UP BND1      Z_342_0_1  1
 UP BND1      Z_342_0_2  1
 UP BND1      Z_342_0_3  1
 UP BND1      Z_78_0_0  1
 UP BND1      Z_78_0_1  1
 UP BND1      Z_78_0_2  1
 UP BND1      Z_78_0_3  1
 UP BND1      Z_586_0_0  1
 UP BND1      Z_586_0_1  1
 UP BND1      Z_586_0_2  1
 UP BND1      Z_586_0_3  1
 UP BND1      Z_281_0_0  1
 UP BND1      Z_281_0_1  1
 UP BND1      Z_281_0_2  1
 UP BND1      Z_281_0_3  1
 UP BND1      Z_609_0_0  1
 UP BND1      Z_609_0_1  1
 UP BND1      Z_609_0_2  1
 UP BND1      Z_609_0_3  1
QUADOBJ
    Z_613_5_0  Z_655_0_0  -8.1500710693769331e-03
    Z_613_5_1  Z_655_0_1  -8.1500710693769331e-03
    Z_613_5_2  Z_655_0_2  -8.1500710693769331e-03
    Z_613_5_3  Z_655_0_3  -8.1500710693769331e-03
    Z_613_9_0  Z_609_0_0  -3.3201940459968483e-04
    Z_613_9_1  Z_609_0_1  -3.3201940459968483e-04
    Z_613_9_2  Z_609_0_2  -3.3201940459968483e-04
    Z_613_9_3  Z_609_0_3  -3.3201940459968483e-04
    Z_613_4_0  Z_609_0_0  -5.5989473978891955e-06
    Z_613_4_1  Z_609_0_1  -5.5989473978891955e-06
    Z_613_4_2  Z_609_0_2  -5.5989473978891955e-06
    Z_613_4_3  Z_609_0_3  -5.5989473978891955e-06
    Z_613_6_0  Z_655_0_0  -2.4974774513638318e-02
    Z_613_6_0  Z_586_0_0  -1.5902849290596082e-02
    Z_613_6_0  Z_609_0_0  -1.9664079272301024e-06
    Z_613_6_1  Z_655_0_1  -2.4974774513638318e-02
    Z_613_6_1  Z_586_0_1  -1.5902849290596082e-02
    Z_613_6_1  Z_609_0_1  -1.9664079272301024e-06
    Z_613_6_2  Z_655_0_2  -2.4974774513638318e-02
    Z_613_6_2  Z_586_0_2  -1.5902849290596082e-02
    Z_613_6_2  Z_609_0_2  -1.9664079272301024e-06
    Z_613_6_3  Z_655_0_3  -2.4974774513638318e-02
    Z_613_6_3  Z_586_0_3  -1.5902849290596082e-02
    Z_613_6_3  Z_609_0_3  -1.9664079272301024e-06
    Z_613_7_0  Z_609_0_0  -1.3643273757190782e-04
    Z_613_7_1  Z_609_0_1  -1.3643273757190782e-04
    Z_613_7_2  Z_609_0_2  -1.3643273757190782e-04
    Z_613_7_3  Z_609_0_3  -1.3643273757190782e-04
    Z_655_0_0  Z_78_0_0  -6.0594346320264954e-02
    Z_655_0_0  Z_586_0_0  -1.5419142266841625e-02
    Z_655_0_0  Z_281_0_0  -2.6942383700419618e-04
    Z_655_0_1  Z_78_0_1  -6.0594346320264954e-02
    Z_655_0_1  Z_586_0_1  -1.5419142266841625e-02
    Z_655_0_1  Z_281_0_1  -2.6942383700419618e-04
    Z_655_0_2  Z_78_0_2  -6.0594346320264954e-02
    Z_655_0_2  Z_586_0_2  -1.5419142266841625e-02
    Z_655_0_2  Z_281_0_2  -2.6942383700419618e-04
    Z_655_0_3  Z_78_0_3  -6.0594346320264954e-02
    Z_655_0_3  Z_586_0_3  -1.5419142266841625e-02
    Z_655_0_3  Z_281_0_3  -2.6942383700419618e-04
ENDATA
