ilp_joint/output/melting_ilp.sol
# Solution for model melting_srl_ilp
# Objective value = 4.0830441263929274e+00
Z_613_1_0 0
Z_613_1_1 0
Z_613_1_2 0
Z_613_1_3 0
Z_613_0_0 0
Z_613_0_1 0
Z_613_0_2 0
Z_613_0_3 0
Z_613_3_0 0
Z_613_3_1 1
Z_613_3_2 0
Z_613_3_3 0
Z_613_2_0 0
Z_613_2_1 0
Z_613_2_2 0
Z_613_2_3 0
Z_613_5_0 0
Z_613_5_1 0
Z_613_5_2 0
Z_613_5_3 1
Z_613_9_0 1
Z_613_9_1 0
Z_613_9_2 0
Z_613_9_3 0
Z_613_4_0 0
Z_613_4_1 0
Z_613_4_2 0
Z_613_4_3 0
Z_613_6_0 0
Z_613_6_1 0
Z_613_6_2 1
Z_613_6_3 0
Z_613_8_0 0
Z_613_8_1 0
Z_613_8_2 0
Z_613_8_3 0
Z_613_7_0 0
Z_613_7_1 0
Z_613_7_2 0
Z_613_7_3 0
Z_655_0_0 0
Z_655_0_1 0
Z_655_0_2 1
Z_655_0_3 0
Z_342_0_0 0
Z_342_0_1 0
Z_342_0_2 1
Z_342_0_3 0
Z_78_0_0 0
Z_78_0_1 0
Z_78_0_2 1
Z_78_0_3 0
Z_586_0_0 1
Z_586_0_1 0
Z_586_0_2 0
Z_586_0_3 0
Z_281_0_0 0
Z_281_0_1 1
Z_281_0_2 0
Z_281_0_3 0
Z_609_0_0 0
Z_609_0_1 0
Z_609_0_2 1
Z_609_0_3 0
